(set-logic HORN)
(set-info :source |
    Benchmark: C_VC
    Output by Princess (http://www.philipp.ruemmer.org/princess.shtml)
|)
(set-info :status sat)
(declare-heap Heap Addr HeapObject
 defObj
 ((HeapObject 0)) (
  (
   (O_Int (getInt Int))
   (O_UInt (getUInt Int))
   (O_Addr (getAddr Addr))
   (defObj)
  )
))
(declare-fun inv_main11 (Heap AddrRange Int) Bool)
(declare-fun inv_main12 (Heap AddrRange Int) Bool)
(declare-fun inv_main4 (Heap AddrRange Int) Bool)
(declare-fun inv_main5 (Heap AddrRange Int) Bool)
(declare-fun inv_main9 (Heap AddrRange Int) Bool)
(assert (forall ((var0 Int) (var1 AddrRange) (var2 Int) (var3 Heap) (var4 Heap)) (or (not (and (= var4 emptyHeap) (and (= var3 (newBatchHeap (batchAlloc emptyHeap (O_Int var2) 1024))) (= var1 (newAddrRange (batchAlloc emptyHeap (O_Int var2) 1024)))))) (inv_main4 var3 var1 var0))))
(assert (forall ((var0 Int) (var1 Int) (var2 AddrRange) (var3 Heap)) (or (not (and (inv_main4 var3 var2 var1) (= var0 0))) (inv_main9 var3 var2 var0))))
(assert (forall ((var0 Int) (var1 AddrRange) (var2 Int) (var3 Heap) (var4 Int) (var5 Int) (var6 AddrRange) (var7 Heap)) (or (not (and (inv_main9 var7 var6 var5) (and (and (<= 0 (+ (+ 1023 (* (- 1) (+ var4 1))) (- 1))) (and (and (is-O_Int (read var7 (nthAddrRange var6 var5))) (is-O_Int (read var7 (nthAddrRange var6 var5)))) (and (and (= var3 (write var7 (nthAddrRange var6 var5) (O_Int var2))) (= var1 var6)) (= var4 var5)))) (= var0 (+ var4 1))))) (inv_main9 var3 var1 var0))))
(assert true)
(assert (forall ((var0 Int) (var1 AddrRange) (var2 Int) (var3 Heap) (var4 Int) (var5 Int) (var6 AddrRange) (var7 Heap)) (or (not (and (inv_main9 var7 var6 var5) (and (and (not (<= 0 (+ (+ 1023 (* (- 1) (+ var4 1))) (- 1)))) (and (and (is-O_Int (read var7 (nthAddrRange var6 var5))) (is-O_Int (read var7 (nthAddrRange var6 var5)))) (and (and (= var3 (write var7 (nthAddrRange var6 var5) (O_Int var2))) (= var1 var6)) (= var4 var5)))) (= var0 (+ var4 1))))) (inv_main5 var3 var1 var0))))
(assert (forall ((var0 Int) (var1 Int) (var2 AddrRange) (var3 Heap) (var4 Int) (var5 AddrRange) (var6 Heap)) (or (not (and (inv_main5 var6 var5 var4) (and (and (and (is-O_Int (read var6 (nthAddrRange var5 1023))) (is-O_Int (read var6 (nthAddrRange var5 1023)))) (and (and (= var3 (write var6 (nthAddrRange var5 1023) (O_Int 0))) (= var2 var5)) (= var1 var4))) (= var0 0)))) (inv_main12 var3 var2 var0))))
(assert (forall ((var0 Int) (var1 Int) (var2 AddrRange) (var3 Heap) (var4 Int) (var5 Int) (var6 AddrRange) (var7 Heap)) (or (not (and (inv_main12 var7 var6 var5) (and (and (and (not (= var4 0)) (is-O_Int (read var7 (nthAddrRange var6 var5)))) (and (and (and (= var3 var7) (= var2 var6)) (= var1 var5)) (= var4 (getInt (read var7 (nthAddrRange var6 var5)))))) (= var0 (+ var1 1))))) (inv_main12 var3 var2 var0))))
(assert (forall ((var0 Int) (var1 AddrRange) (var2 Heap) (var3 Int) (var4 Int) (var5 AddrRange) (var6 Heap)) (or (not (and (inv_main12 var6 var5 var4) (and (and (= var3 0) (is-O_Int (read var6 (nthAddrRange var5 var4)))) (and (and (and (= var2 var6) (= var1 var5)) (= var0 var4)) (= var3 (getInt (read var6 (nthAddrRange var5 var4)))))))) (inv_main11 var2 var1 var0))))
(assert (forall ((var0 Int) (var1 AddrRange) (var2 Heap)) (not (and (inv_main9 var2 var1 var0) (not (is-O_Int (read var2 (nthAddrRange var1 var0))))))))
(assert (forall ((var0 Int) (var1 AddrRange) (var2 Heap)) (not (and (inv_main9 var2 var1 var0) (and (is-O_Int (read var2 (nthAddrRange var1 var0))) (not (within var1 (nthAddrRange var1 var0))))))))
(assert (forall ((var0 Int) (var1 AddrRange) (var2 Heap)) (not (and (inv_main9 var2 var1 var0) (and (is-O_Int (read var2 (nthAddrRange var1 var0))) (not (is-O_Int (read var2 (nthAddrRange var1 var0)))))))))
(assert (forall ((var0 Int) (var1 AddrRange) (var2 Heap)) (not (and (inv_main5 var2 var1 var0) (not (is-O_Int (read var2 (nthAddrRange var1 1023))))))))
(assert (forall ((var0 Int) (var1 AddrRange) (var2 Heap)) (not (and (inv_main5 var2 var1 var0) (and (is-O_Int (read var2 (nthAddrRange var1 1023))) (not (within var1 (nthAddrRange var1 1023))))))))
(assert (forall ((var0 Int) (var1 AddrRange) (var2 Heap)) (not (and (inv_main5 var2 var1 var0) (and (is-O_Int (read var2 (nthAddrRange var1 1023))) (not (is-O_Int (read var2 (nthAddrRange var1 1023)))))))))
(assert (forall ((var0 Int) (var1 AddrRange) (var2 Heap)) (not (and (inv_main12 var2 var1 var0) (not (is-O_Int (read var2 (nthAddrRange var1 var0))))))))
(assert (forall ((var0 Int) (var1 AddrRange) (var2 Heap)) (not (and (inv_main12 var2 var1 var0) (and (is-O_Int (read var2 (nthAddrRange var1 var0))) (not (within var1 (nthAddrRange var1 var0))))))))
(assert (forall ((var0 Int) (var1 AddrRange) (var2 Heap)) (not (and (inv_main11 var2 var1 var0) (not (<= 0 (+ 1024 (* (- 1) var0))))))))
(check-sat)
